$ nonogram instance, generated by: nonogen 10 5 0.42 0.9 0.2 2194288206
$ #.#..
$ ....#
$ ##..#
$ .#.##
$ ##...
$ ..#.#
$ .####
$ ....#
$ .##..
$ .#...
letting m be 10
letting n be 5
letting rowRules be [
sequence(1,1),
sequence(1),
sequence(2,1),
sequence(1,2),
sequence(2),
sequence(1,1),
sequence(4),
sequence(1),
sequence(2),
sequence(1)]
letting colRules be [
sequence(1,1,1),
sequence(3,1,2),
sequence(1,2,1),
sequence(1,1),
sequence(3,3)]
